words_hard_train/8299.qaiger
aag 135 16 0 1 119
2
4
8
12
20
24
44
88
116
126
154
164
192
202
230
232
271
6 2 4
10 6 8
14 11 13
16 10 12
18 15 17
22 3 21
26 5 25
28 4 24
30 27 29
32 30 20
34 23 33
36 30 3
38 35 37
40 32 2
42 41 29
46 9 45
48 8 44
50 47 49
52 42 51
54 43 50
56 53 55
58 39 56
60 38 57
62 59 61
64 3 4
66 65 27
68 4 25
70 69 22
72 67 71
74 7 9
76 75 11
78 72 76
80 63 79
82 73 77
84 81 83
86 55 49
90 13 89
92 12 88
94 91 93
96 86 95
98 87 94
100 97 99
102 61 100
104 60 101
106 103 105
108 84 106
110 19 109
112 85 107
114 111 113
118 17 117
120 16 116
122 119 121
124 99 93
128 117 127
130 116 126
132 129 131
134 124 133
136 125 132
138 135 137
140 105 138
142 104 139
144 141 143
146 122 144
148 115 147
150 123 145
152 149 151
156 121 155
158 120 154
160 157 159
162 137 131
166 155 165
168 154 164
170 167 169
172 162 171
174 163 170
176 173 175
178 143 176
180 142 177
182 179 181
184 161 183
186 152 185
188 160 182
190 187 189
194 159 193
196 158 192
198 195 197
200 175 169
204 193 203
206 192 202
208 205 207
210 200 209
212 201 208
214 211 213
216 181 214
218 180 215
220 217 219
222 199 221
224 191 223
226 198 220
228 225 227
234 230 233
236 231 232
238 235 237
240 213 207
242 239 241
244 238 240
246 243 245
248 229 246
250 196 231
252 197 230
254 251 253
256 254 218
258 249 257
260 228 247
262 255 219
264 261 263
266 258 265
268 248 256
270 267 269
i0 2 y1[0]
i1 2 y1[1]
i2 2 y1[2]
i3 2 y1[3]
i4 1 x2[0]
i5 1 x2[1]
i6 1 x2[2]
i7 1 x2[3]
i8 2 y1[4]
i9 1 x2[4]
i10 2 y1[5]
i11 1 x2[5]
i12 2 y1[6]
i13 1 x2[6]
i14 2 y1[7]
i15 1 x2[7]
o0 bv[0]
c
simplified
  <
    subtract
      1
      unary minus
        2 y1
    add
      2 y1
      1 x2
