words_hard_train/8299.qaiger.qdimacs
p cnf 135 358
a 101 10 12 44 82 116 22 63 0
e 1 2 3 4 5 6 7 8 9 11 13 14 15 16 17 18 19 20 21 23 24 25 26 27 28 29 30 31 32 33 34 35 36 37 38 39 40 41 42 43 45 46 47 48 49 50 51 52 53 54 55 56 57 58 59 60 61 62 64 65 66 67 68 69 70 71 72 73 74 75 76 77 78 79 80 81 83 84 85 86 87 88 89 90 91 92 93 94 95 96 97 98 99 100 102 103 104 105 106 107 108 109 110 111 112 113 114 115 117 118 119 120 121 122 123 124 125 126 127 128 129 130 131 132 133 134 135 0
-1 -2 3 0
1 -3 0
2 -3 0
-3 -4 5 0
3 -5 0
4 -5 0
5 6 7 0
-5 -7 0
-6 -7 0
-5 -6 8 0
5 -8 0
6 -8 0
7 8 9 0
-7 -9 0
-8 -9 0
1 10 11 0
-1 -11 0
-10 -11 0
2 12 13 0
-2 -13 0
-12 -13 0
-2 -12 14 0
2 -14 0
12 -14 0
13 14 15 0
-13 -15 0
-14 -15 0
-15 -10 16 0
15 -16 0
10 -16 0
11 16 17 0
-11 -17 0
-16 -17 0
-15 1 18 0
15 -18 0
-1 -18 0
17 18 19 0
-17 -19 0
-18 -19 0
-16 -1 20 0
16 -20 0
1 -20 0
20 14 21 0
-20 -21 0
-14 -21 0
4 22 23 0
-4 -23 0
-22 -23 0
-4 -22 24 0
4 -24 0
22 -24 0
23 24 25 0
-23 -25 0
-24 -25 0
-21 25 26 0
21 -26 0
-25 -26 0
21 -25 27 0
-21 -27 0
25 -27 0
26 27 28 0
-26 -28 0
-27 -28 0
19 -28 29 0
-19 -29 0
28 -29 0
-19 28 30 0
19 -30 0
-28 -30 0
29 30 31 0
-29 -31 0
-30 -31 0
1 -2 32 0
-1 -32 0
2 -32 0
32 13 33 0
-32 -33 0
-13 -33 0
-2 12 34 0
2 -34 0
-12 -34 0
34 -11 35 0
-34 -35 0
11 -35 0
33 35 36 0
-33 -36 0
-35 -36 0
3 4 37 0
-3 -37 0
-4 -37 0
37 5 38 0
-37 -38 0
-5 -38 0
-36 -38 39 0
36 -39 0
38 -39 0
31 39 40 0
-31 -40 0
-39 -40 0
36 38 41 0
-36 -41 0
-38 -41 0
40 41 42 0
-40 -42 0
-41 -42 0
27 24 43 0
-27 -43 0
-24 -43 0
6 44 45 0
-6 -45 0
-44 -45 0
-6 -44 46 0
6 -46 0
44 -46 0
45 46 47 0
-45 -47 0
-46 -47 0
-43 47 48 0
43 -48 0
-47 -48 0
43 -47 49 0
-43 -49 0
47 -49 0
48 49 50 0
-48 -50 0
-49 -50 0
30 -50 51 0
-30 -51 0
50 -51 0
-30 50 52 0
30 -52 0
-50 -52 0
51 52 53 0
-51 -53 0
-52 -53 0
-42 -53 54 0
42 -54 0
53 -54 0
9 54 55 0
-9 -55 0
-54 -55 0
42 53 56 0
-42 -56 0
-53 -56 0
55 56 57 0
-55 -57 0
-56 -57 0
8 58 59 0
-8 -59 0
-58 -59 0
-8 -58 60 0
8 -60 0
58 -60 0
59 60 61 0
-59 -61 0
-60 -61 0
49 46 62 0
-49 -62 0
-46 -62 0
58 63 64 0
-58 -64 0
-63 -64 0
-58 -63 65 0
58 -65 0
63 -65 0
64 65 66 0
-64 -66 0
-65 -66 0
-62 66 67 0
62 -67 0
-66 -67 0
62 -66 68 0
-62 -68 0
66 -68 0
67 68 69 0
-67 -69 0
-68 -69 0
52 -69 70 0
-52 -70 0
69 -70 0
-52 69 71 0
52 -71 0
-69 -71 0
70 71 72 0
-70 -72 0
-71 -72 0
-61 -72 73 0
61 -73 0
72 -73 0
57 73 74 0
-57 -74 0
-73 -74 0
61 72 75 0
-61 -75 0
-72 -75 0
74 75 76 0
-74 -76 0
-75 -76 0
60 77 78 0
-60 -78 0
-77 -78 0
-60 -77 79 0
60 -79 0
77 -79 0
78 79 80 0
-78 -80 0
-79 -80 0
68 65 81 0
-68 -81 0
-65 -81 0
77 82 83 0
-77 -83 0
-82 -83 0
-77 -82 84 0
77 -84 0
82 -84 0
83 84 85 0
-83 -85 0
-84 -85 0
-81 85 86 0
81 -86 0
-85 -86 0
81 -85 87 0
-81 -87 0
85 -87 0
86 87 88 0
-86 -88 0
-87 -88 0
71 -88 89 0
-71 -89 0
88 -89 0
-71 88 90 0
71 -90 0
-88 -90 0
89 90 91 0
-89 -91 0
-90 -91 0
80 91 92 0
-80 -92 0
-91 -92 0
-76 92 93 0
76 -93 0
-92 -93 0
-80 -91 94 0
80 -94 0
91 -94 0
93 94 95 0
-93 -95 0
-94 -95 0
79 96 97 0
-79 -97 0
-96 -97 0
-79 -96 98 0
79 -98 0
96 -98 0
97 98 99 0
-97 -99 0
-98 -99 0
87 84 100 0
-87 -100 0
-84 -100 0
96 101 102 0
-96 -102 0
-101 -102 0
-96 -101 103 0
96 -103 0
101 -103 0
102 103 104 0
-102 -104 0
-103 -104 0
-100 104 105 0
100 -105 0
-104 -105 0
100 -104 106 0
-100 -106 0
104 -106 0
105 106 107 0
-105 -107 0
-106 -107 0
90 -107 108 0
-90 -108 0
107 -108 0
-90 107 109 0
90 -109 0
-107 -109 0
108 109 110 0
-108 -110 0
-109 -110 0
99 110 111 0
-99 -111 0
-110 -111 0
95 111 112 0
-95 -112 0
-111 -112 0
-99 -110 113 0
99 -113 0
110 -113 0
112 113 114 0
-112 -114 0
-113 -114 0
-115 116 117 0
115 -117 0
-116 -117 0
115 -116 118 0
-115 -118 0
116 -118 0
117 118 119 0
-117 -119 0
-118 -119 0
106 103 120 0
-106 -120 0
-103 -120 0
119 120 121 0
-119 -121 0
-120 -121 0
-119 -120 122 0
119 -122 0
120 -122 0
121 122 123 0
-121 -123 0
-122 -123 0
114 -123 124 0
-114 -124 0
123 -124 0
-98 115 125 0
98 -125 0
-115 -125 0
98 -115 126 0
-98 -126 0
115 -126 0
125 126 127 0
-125 -127 0
-126 -127 0
-127 -109 128 0
127 -128 0
109 -128 0
124 128 129 0
-124 -129 0
-128 -129 0
-114 123 130 0
114 -130 0
-123 -130 0
127 109 131 0
-127 -131 0
-109 -131 0
130 131 132 0
-130 -132 0
-131 -132 0
-129 132 133 0
129 -133 0
-132 -133 0
-124 -128 134 0
124 -134 0
128 -134 0
133 134 135 0
-133 -135 0
-134 -135 0
-135 0
